NAME 
ROWS
 N  OBJ
 L  R0      
 E  R1      
 E  R2      
 E  R3      
 E  R4      
 E  R5      
 E  R6      
 E  R7      
 E  R8      
 E  R9      
 E  R10     
 E  R11     
 E  R12     
 E  R13     
 E  R14     
 E  R15     
 E  R16     
 E  R17     
 E  R18     
 E  R19     
 E  R20     
COLUMNS
    MARKER    'MARKER'                 'INTORG'
    I0(4)     OBJ       -113
    I0(4)     R0        144
    I0(4)     R3        5
    I0(4)     R4        4
    I0(4)     R20       1
    I1(7)     OBJ       -129
    I1(7)     R0        170
    I1(7)     R1        -1
    I1(7)     R5        10
    I1(7)     R6        15
    I1(7)     R8        16
    I1(7)     R9        2
    I1(7)     R20       1
    I2(7)     OBJ       -8
    I2(7)     R0        44
    I2(7)     R1        12
    I2(7)     R3        8
    I2(7)     R6        14
    I2(7)     R7        2
    I2(7)     R9        17
    I2(7)     R20       1
    I3(11)    OBJ       51
    I3(11)    R0        5
    I3(11)    R1        17
    I3(11)    R2        18
    I3(11)    R3        8
    I3(11)    R4        19
    I3(11)    R5        5
    I3(11)    R6        7
    I3(11)    R8        8
    I3(11)    R9        11
    I3(11)    R10       8
    I3(11)    R20       1
    I4(8)     OBJ       150
    I4(8)     R0        10
    I4(8)     R2        14
    I4(8)     R4        16
    I4(8)     R6        8
    I4(8)     R7        12
    I4(8)     R8        9
    I4(8)     R9        4
    I4(8)     R20       1
    I5(9)     OBJ       148
    I5(9)     R0        -44
    I5(9)     R2        19
    I5(9)     R3        18
    I5(9)     R4        6
    I5(9)     R5        1
    I5(9)     R7        5
    I5(9)     R9        2
    I5(9)     R10       7
    I5(9)     R20       1
    I6(9)     OBJ       57
    I6(9)     R0        13
    I6(9)     R4        3
    I6(9)     R5        3
    I6(9)     R6        16
    I6(9)     R7        13
    I6(9)     R8        16
    I6(9)     R9        6
    I6(9)     R10       13
    I6(9)     R20       1
    I7(12)    OBJ       -72
    I7(12)    R0        21
    I7(12)    R1        14
    I7(12)    R2        -1
    I7(12)    R3        7
    I7(12)    R4        15
    I7(12)    R5        3
    I7(12)    R6        13
    I7(12)    R7        3
    I7(12)    R8        16
    I7(12)    R9        2
    I7(12)    R10       6
    I7(12)    R20       1
    I8(9)     OBJ       145
    I8(9)     R0        -62
    I8(9)     R1        14
    I8(9)     R2        16
    I8(9)     R4        1
    I8(9)     R5        17
    I8(9)     R7        5
    I8(9)     R8        18
    I8(9)     R10       14
    I8(9)     R20       1
    I9(12)    OBJ       -155
    I9(12)    R0        -186
    I9(12)    R1        16
    I9(12)    R2        7
    I9(12)    R3        2
    I9(12)    R4        -1
    I9(12)    R5        19
    I9(12)    R6        -1
    I9(12)    R7        11
    I9(12)    R8        12
    I9(12)    R9        12
    I9(12)    R10       15
    I9(12)    R20       1
    MARKER    'MARKER'                 'INTEND'
    C10(15)   OBJ       -2
    C10(15)   R0        -5
    C10(15)   R2        7
    C10(15)   R3        12
    C10(15)   R4        11
    C10(15)   R6        19
    C10(15)   R7        14
    C10(15)   R8        2
    C10(15)   R9        3
    C10(15)   R10       1
    C10(15)   R12       8
    C10(15)   R14       6
    C10(15)   R15       11
    C10(15)   R17       9
    C10(15)   R18       12
    C10(15)   R19       15
    C11(12)   OBJ       -1
    C11(12)   R0        2
    C11(12)   R2        15
    C11(12)   R3        12
    C11(12)   R5        11
    C11(12)   R6        1
    C11(12)   R7        13
    C11(12)   R8        8
    C11(12)   R9        19
    C11(12)   R10       2
    C11(12)   R13       6
    C11(12)   R18       2
    C11(12)   R19       18
    C12(16)   OBJ       -6
    C12(16)   R0        1
    C12(16)   R1        11
    C12(16)   R2        1
    C12(16)   R3        12
    C12(16)   R4        9
    C12(16)   R5        14
    C12(16)   R6        1
    C12(16)   R8        10
    C12(16)   R9        9
    C12(16)   R10       18
    C12(16)   R13       5
    C12(16)   R14       8
    C12(16)   R15       9
    C12(16)   R17       1
    C12(16)   R18       8
    C12(16)   R19       6
    C13(14)   OBJ       3
    C13(14)   R0        1
    C13(14)   R2        10
    C13(14)   R3        6
    C13(14)   R4        14
    C13(14)   R5        17
    C13(14)   R9        9
    C13(14)   R10       6
    C13(14)   R11       -1
    C13(14)   R12       16
    C13(14)   R14       18
    C13(14)   R15       18
    C13(14)   R16       6
    C13(14)   R17       11
    C13(14)   R18       8
    C14(11)   OBJ       5
    C14(11)   R0        -10
    C14(11)   R1        7
    C14(11)   R2        8
    C14(11)   R3        17
    C14(11)   R5        2
    C14(11)   R12       19
    C14(11)   R14       12
    C14(11)   R16       1
    C14(11)   R17       7
    C14(11)   R18       4
    C14(11)   R19       13
    C15(10)   R0        8
    C15(10)   R2        12
    C15(10)   R3        -1
    C15(10)   R4        -1
    C15(10)   R8        11
    C15(10)   R9        19
    C15(10)   R10       5
    C15(10)   R12       17
    C15(10)   R15       12
    C15(10)   R18       19
    C16(12)   OBJ       -1
    C16(12)   R0        -6
    C16(12)   R1        1
    C16(12)   R5        11
    C16(12)   R8        15
    C16(12)   R9        14
    C16(12)   R10       13
    C16(12)   R11       13
    C16(12)   R12       18
    C16(12)   R14       10
    C16(12)   R16       9
    C16(12)   R17       7
    C16(12)   R18       13
    C17(14)   OBJ       -6
    C17(14)   R0        -3
    C17(14)   R1        12
    C17(14)   R2        13
    C17(14)   R3        13
    C17(14)   R4        -1
    C17(14)   R5        11
    C17(14)   R6        13
    C17(14)   R7        12
    C17(14)   R9        4
    C17(14)   R10       18
    C17(14)   R12       18
    C17(14)   R15       15
    C17(14)   R17       8
    C17(14)   R19       6
    C18(13)   OBJ       8
    C18(13)   R0        6
    C18(13)   R1        8
    C18(13)   R4        19
    C18(13)   R5        11
    C18(13)   R6        15
    C18(13)   R7        -1
    C18(13)   R9        15
    C18(13)   R11       19
    C18(13)   R12       14
    C18(13)   R13       3
    C18(13)   R14       17
    C18(13)   R15       3
    C18(13)   R16       -1
    C19(15)   OBJ       -1
    C19(15)   R0        1
    C19(15)   R1        5
    C19(15)   R2        8
    C19(15)   R3        16
    C19(15)   R5        17
    C19(15)   R7        9
    C19(15)   R8        11
    C19(15)   R9        6
    C19(15)   R10       11
    C19(15)   R12       2
    C19(15)   R13       6
    C19(15)   R14       5
    C19(15)   R15       9
    C19(15)   R17       9
    C19(15)   R19       18
    C20(1)    R1        1
    C21(1)    R2        1
    C22(1)    R3        1
    C23(1)    R4        1
    C24(1)    R5        1
    C25(1)    R6        1
    C26(1)    R7        1
    C27(1)    R8        1
    C28(1)    R9        1
    C29(1)    R10       1
    C30(1)    R11       1
    C31(1)    R12       1
    C32(1)    R13       1
    C33(1)    R14       1
    C34(1)    R15       1
    C35(1)    R16       1
    C36(1)    R17       1
    C37(1)    R18       1
    C38(1)    R19       1
    C39(1)    R20       1
RHS
    RHS1      R0        1.1718894675925952e+02
    RHS1      R1        58
    RHS1      R2        66
    RHS1      R3        68
    RHS1      R4        69
    RHS1      R5        72
    RHS1      R6        67
    RHS1      R7        95
    RHS1      R8        69
    RHS1      R9        50
    RHS1      R10       60
    RHS1      R11       54
    RHS1      R12       60
    RHS1      R13       76
    RHS1      R14       81
    RHS1      R15       64
    RHS1      R16       55
    RHS1      R17       78
    RHS1      R18       84
    RHS1      R19       67
    RHS1      R20       3
BOUNDS
 UP BND1      I0(4)     1
 UP BND1      I1(7)     1
 UP BND1      I2(7)     1
 UP BND1      I3(11)    1
 UP BND1      I4(8)     1
 UP BND1      I5(9)     1
 UP BND1      I6(9)     1
 UP BND1      I7(12)    1
 UP BND1      I8(9)     1
 UP BND1      I9(12)    1
ENDATA
